c Sudoku solution
p cnf 729 0
116 0
143 0
194 0
235 0
312 0
354 0
367 0
449 0
496 0
519 0
551 0
595 0
627 0
642 0
679 0
683 0
761 0
785 0
815 0
425 0
844 0
852 0
921 0
937 0
217 0
224 0
946 0
345 0
241 0
175 0
187 0
131 0
162 0
965 0
655 0
256 0
972 0
292 0
273 0
888 0
386 0
481 0
698 0
582 0
611 0
432 0
722 0
378 0
391 0
289 0
268 0
159 0
128 0
538 0
547 0
477 0
574 0
748 0
757 0
918 0
984 0
776 0
458 0
953 0
869 0
739 0
714 0
793 0
999 0
413 0
526 0
634 0
464 0
563 0
666 0
823 0
836 0
329 0
333 0
871 0
897 0
